\ENCODING=ISO-8859-1
\Problem name: IloCplex

Minimize
 obj1: Y_1 + Y_2 + Y_3 + Y_4 + Y_5 + Y_6 + Y_7 + Y_8
Subject To
 c1:  Y_1 + Y_2 + Y_4 + Y_5 - X_1 - X_3 - X_5 - X_10 - X_15 - X_20 >= 0
 c2:  - X_6 - X_11 - X_16 - X_21 >= 0
 c3:  Y_6 + 6 Y_7 - X_7 - X_12 - X_17 - X_22 >= 0
 c4:  Y_2 + 5 Y_3 + 2 Y_4 + 2 Y_5 + Y_8 - X_4 - X_8 - X_13 - X_18 - X_23 >= 0
 c5:  Y_1 + 3 Y_6 + 3 Y_8 - X_2 - X_9 - X_14 - X_19 - X_24 >= 0
 c6:  2 X_1 + X_3 + 2 X_5 + 2 X_10 + 2 X_15 + 2 X_20 + 2 X_6 + 2 X_11 + 2 X_16
      + 2 X_21 + 2 X_7 + 2 X_12 + 2 X_17 + 2 X_22 + 2 X_8 + 2 X_13 + 2 X_18
      + 2 X_23 + 2 X_9 + 2 X_14 + 2 X_19 + 2 X_24 >= 3
 c7:  X_3 + 3 X_2 >= 4
 c8:  4 X_4 >= 4
 c9:  2 X_3 + X_5 + X_10 + X_15 + X_20 + X_6 + X_11 + X_16 + X_21 + X_7 + X_12
      + X_17 + X_22 + X_4 + X_8 + X_13 + X_18 + X_23 + X_9 + X_14 + X_19 + X_24
      >= 3
 c10: 3 X_1 + 3 X_2 >= 6
End
